c 9th DIMACS Implementation Challenge: Shortest Paths
c http://www.dis.uniroma1.it/~challenge9
c TIGER/Line graph USA-road-d.CAL
c
p sp 5 8
c graph contains 1890815 nodes and 4657742 arcs
c
a 1 3 6
a 1 4 3
a 2 1 3
a 5 2 4
a 5 4 2
a 4 3 1
a 3 4 2
a 4 2 1
